0 0 0 0
0 1 1 0
0 2 0 0
0 3 0 0
0 4 1 5
0 5 0 4
0 6 1 6
0 7 0 4
0 8 2 5
0 9 2 12
0 10 2 5
0 11 0 4
0 12 0 5
0 13 2 15
0 14 0 5
0 15 1 12
0 16 0 15
0 17 0 22
0 18 0 12
0 19 2 11
0 20 0 19
0 21 2 15
0 22 0 23
0 23 2 6
0 24 0 22
0 25 0 19
0 26 0 17
0 27 0 26
0 28 0 27
0 29 2 19
0 30 0 26
0 31 0 30
